Optimal - objective value 5.71681600
      0 r_0                         0                0.982301
      1 r_1                         1                0.982301
      2 r_2                         0                0.973451
      3 r_3                         0                0.973451
      4 r_4                         0                0.964602
      5 r_5                         0                0.946903
      6 r_6                         1                0.946903
      7 r_7                         0                0.938053
      8 r_8                         0                0.938053
      9 r_9                         0                0.938053
     10 r_10                        0                0.938053
     11 r_11                        0                0.938053
     12 r_12                        1                0.929204
     13 r_13                        0                0.929204
     14 r_14                        0                0.929204
     15 r_15                        0                0.920354
     16 b_0                         1                0.982301
     17 b_1                         0                0.982301
     18 b_2                         0                0.973451
     19 b_3                         0                0.973451
     20 b_4                         0                0.964602
     21 b_5                         1                0.946903
     22 b_6                         0                0.946903
     23 b_7                         0                0.938053
     24 b_8                         0                0.938053
     25 b_9                         0                0.938053
     26 b_10                        0                0.938053
     27 b_11                        0                0.938053
     28 b_12                        0                0.929204
     29 b_13                        0                0.929204
     30 b_14                        1                0.929204
     31 b_15                        0                0.920354
